02_FORMAL/tv/RIINA/Domains/SecurityFoundation/VerifiedCrypto.tv.smt2
; Copyright (c) 2026 The RIINA Authors. All rights reserved.
; Auto-generated from 02_FORMAL/coq/domains/security_foundation/VerifiedCrypto.v (21 validations)
; Generated by scripts/generate-full-stack.py
;
; Translation Validation for VerifiedCrypto
; Layer 9: Verifies compiler backend preserves formal semantics.
; Each assertion checks source IR ≡ target code for a proven property.

(set-logic QF_LIA)
(set-option :produce-models true)

; IR node representation
(declare-sort IRNode 0)
(declare-sort TargetNode 0)

; key_in_plaintext: source semantics (matches Coq)
(declare-fun source_key_in_plaintext () Bool)
(declare-fun target_key_in_plaintext () Bool)
(assert (= source_key_in_plaintext target_key_in_plaintext))

; key_protected: source semantics (matches Coq)
(declare-fun source_key_protected () Bool)
(declare-fun target_key_protected () Bool)
(assert (= source_key_protected target_key_protected))

; secure_key_storage: source semantics (matches Coq)
(declare-fun source_secure_key_storage () Bool)
(declare-fun target_secure_key_storage () Bool)
(assert (= source_secure_key_storage target_secure_key_storage))

; execution_time: source semantics (matches Coq)
(declare-fun source_execution_time () Bool)
(declare-fun target_execution_time () Bool)
(assert (= source_execution_time target_execution_time))

; execute_crypto: source semantics (matches Coq)
(declare-fun source_execute_crypto () Bool)
(declare-fun target_execute_crypto () Bool)
(assert (= source_execute_crypto target_execute_crypto))

; key_strength_sufficient: source semantics (matches Coq)
(declare-fun source_key_strength_sufficient () Bool)
(declare-fun target_key_strength_sufficient () Bool)
(assert (= source_key_strength_sufficient target_key_strength_sufficient))

; key_is_strong: source semantics (matches Coq)
(declare-fun source_key_is_strong () Bool)
(declare-fun target_key_is_strong () Bool)
(assert (= source_key_is_strong target_key_is_strong))

; derived_key_independent: source semantics (matches Coq)
(declare-fun source_derived_key_independent () Bool)
(declare-fun target_derived_key_independent () Bool)
(assert (= source_derived_key_independent target_derived_key_independent))

; key_never_plaintext: translation preserves property (matches Coq: Theorem)
(declare-fun source_key_never_plaintext () Bool)
(declare-fun target_key_never_plaintext () Bool)
(assert (= source_key_never_plaintext target_key_never_plaintext))

; crypto_constant_time: translation preserves property (matches Coq: Theorem)
(declare-fun source_crypto_constant_time () Bool)
(declare-fun target_crypto_constant_time () Bool)
(assert (= source_crypto_constant_time target_crypto_constant_time))

; wrapped_key_protected: translation preserves property (matches Coq: Theorem)
(declare-fun source_wrapped_key_protected () Bool)
(declare-fun target_wrapped_key_protected () Bool)
(assert (= source_wrapped_key_protected target_wrapped_key_protected))

; secure_memory_protects_key: translation preserves property (matches Coq: Theorem)
(declare-fun source_secure_memory_protects_key () Bool)
(declare-fun target_secure_memory_protects_key () Bool)
(assert (= source_secure_memory_protects_key target_secure_memory_protects_key))

; constant_time_prevents_timing_attack: translation preserves property (matches Coq: Theorem)
(declare-fun source_constant_time_prevents_timing_attack () Bool)
(declare-fun target_constant_time_prevents_timing_attack () Bool)
(assert (= source_constant_time_prevents_timing_attack target_constant_time_prevents_timing_attack))

; non_constant_time_vulnerable: translation preserves property (matches Coq: Theorem)
(declare-fun source_non_constant_time_vulnerable () Bool)
(declare-fun target_non_constant_time_vulnerable () Bool)
(assert (= source_non_constant_time_vulnerable target_non_constant_time_vulnerable))

; key_never_exposed: translation preserves property (matches Coq: Theorem)
(declare-fun source_key_never_exposed () Bool)
(declare-fun target_key_never_exposed () Bool)
(assert (= source_key_never_exposed target_key_never_exposed))

; weak_key_detected: translation preserves property (matches Coq: Theorem)
(declare-fun source_weak_key_detected () Bool)
(declare-fun target_weak_key_detected () Bool)
(assert (= source_weak_key_detected target_weak_key_detected))

; strong_key_sufficient: translation preserves property (matches Coq: Theorem)
(declare-fun source_strong_key_sufficient () Bool)
(declare-fun target_strong_key_sufficient () Bool)
(assert (= source_strong_key_sufficient target_strong_key_sufficient))

; encrypt_decrypt_equal_time: translation preserves property (matches Coq: Theorem)
(declare-fun source_encrypt_decrypt_equal_time () Bool)
(declare-fun target_encrypt_decrypt_equal_time () Bool)
(assert (= source_encrypt_decrypt_equal_time target_encrypt_decrypt_equal_time))

; sign_verify_equal_time: translation preserves property (matches Coq: Theorem)
(declare-fun source_sign_verify_equal_time () Bool)
(declare-fun target_sign_verify_equal_time () Bool)
(assert (= source_sign_verify_equal_time target_sign_verify_equal_time))

; hash_fastest_operation: translation preserves property (matches Coq: Theorem)
(declare-fun source_hash_fastest_operation () Bool)
(declare-fun target_hash_fastest_operation () Bool)
(assert (= source_hash_fastest_operation target_hash_fastest_operation))

; key_derive_slowest: translation preserves property (matches Coq: Theorem)
(declare-fun source_key_derive_slowest () Bool)
(declare-fun target_key_derive_slowest () Bool)
(assert (= source_key_derive_slowest target_key_derive_slowest))

; secure_storage_implies_protected: translation preserves property (matches Coq: Theorem)
(declare-fun source_secure_storage_implies_protected () Bool)
(declare-fun target_secure_storage_implies_protected () Bool)
(assert (= source_secure_storage_implies_protected target_secure_storage_implies_protected))

; unprotected_key_vulnerable: translation preserves property (matches Coq: Theorem)
(declare-fun source_unprotected_key_vulnerable () Bool)
(declare-fun target_unprotected_key_vulnerable () Bool)
(assert (= source_unprotected_key_vulnerable target_unprotected_key_vulnerable))

; protection_complementary: translation preserves property (matches Coq: Theorem)
(declare-fun source_protection_complementary () Bool)
(declare-fun target_protection_complementary () Bool)
(assert (= source_protection_complementary target_protection_complementary))

; no_protection_potential_exposure: translation preserves property (matches Coq: Theorem)
(declare-fun source_no_protection_potential_exposure () Bool)
(declare-fun target_no_protection_potential_exposure () Bool)
(assert (= source_no_protection_potential_exposure target_no_protection_potential_exposure))

; fully_hardened_context: translation preserves property (matches Coq: Theorem)
(declare-fun source_fully_hardened_context () Bool)
(declare-fun target_fully_hardened_context () Bool)
(assert (= source_fully_hardened_context target_fully_hardened_context))

; operation_time_positive: translation preserves property (matches Coq: Theorem)
(declare-fun source_operation_time_positive () Bool)
(declare-fun target_operation_time_positive () Bool)
(assert (= source_operation_time_positive target_operation_time_positive))

; encrypt_faster_than_sign: translation preserves property (matches Coq: Theorem)
(declare-fun source_encrypt_faster_than_sign () Bool)
(declare-fun target_encrypt_faster_than_sign () Bool)
(assert (= source_encrypt_faster_than_sign target_encrypt_faster_than_sign))

; crypto_execution_deterministic: translation preserves property (matches Coq: Theorem)
(declare-fun source_crypto_execution_deterministic () Bool)
(declare-fun target_crypto_execution_deterministic () Bool)
(assert (= source_crypto_execution_deterministic target_crypto_execution_deterministic))

; Verify all translation validations are satisfiable
(check-sat)
(exit)
